DIMACS_lns/graph-1000-305.col
p edge 1000 1803
e 3 453
e 3 468
e 3 680
e 3 330
e 5 236
e 5 749
e 5 696
e 5 864
e 5 760
e 5 928
e 6 40
e 6 735
e 6 969
e 6 324
e 6 832
e 6 417
e 6 435
e 7 669
e 7 413
e 7 303
e 7 931
e 8 587
e 8 460
e 8 788
e 8 908
e 9 285
e 9 958
e 9 202
e 9 536
e 9 752
e 9 178
e 9 341
e 10 67
e 10 323
e 10 11
e 10 213
e 10 159
e 10 160
e 11 1000
e 11 693
e 11 897
e 11 588
e 11 340
e 13 362
e 13 863
e 13 539
e 13 793
e 13 235
e 15 421
e 15 75
e 15 828
e 15 256
e 16 266
e 16 858
e 16 703
e 16 684
e 16 485
e 17 248
e 17 746
e 17 671
e 18 919
e 18 956
e 18 952
e 18 604
e 19 521
e 19 249
e 19 389
e 19 201
e 19 595
e 20 913
e 20 45
e 20 464
e 20 112
e 20 48
e 24 340
e 24 746
e 24 547
e 24 163
e 24 528
e 24 303
e 24 962
e 24 398
e 25 811
e 25 316
e 25 928
e 25 499
e 26 183
e 26 812
e 26 283
e 26 386
e 28 812
e 28 93
e 28 978
e 28 896
e 28 561
e 29 568
e 29 980
e 29 895
e 29 620
e 30 843
e 30 820
e 30 113
e 31 709
e 31 723
e 31 146
e 31 201
e 31 271
e 31 755
e 32 237
e 32 124
e 32 435
e 32 590
e 33 181
e 33 135
e 33 443
e 33 607
e 33 130
e 34 625
e 34 180
e 34 336
e 34 766
e 36 491
e 36 563
e 36 172
e 36 889
e 37 127
e 37 121
e 37 602
e 37 928
e 37 680
e 37 733
e 37 191
e 37 781
e 37 931
e 38 755
e 38 202
e 38 161
e 40 563
e 40 762
e 41 69
e 41 749
e 41 690
e 41 924
e 41 602
e 42 406
e 42 502
e 42 61
e 42 699
e 42 122
e 42 334
e 42 523
e 43 513
e 43 224
e 43 366
e 43 129
e 43 296
e 43 440
e 43 711
e 43 796
e 44 118
e 44 148
e 44 106
e 44 74
e 44 721
e 45 978
e 45 682
e 45 412
e 45 386
e 45 462
e 45 699
e 46 109
e 46 637
e 46 497
e 46 945
e 46 635
e 47 149
e 47 113
e 47 523
e 47 684
e 47 299
e 47 612
e 48 716
e 48 338
e 48 269
e 48 484
e 48 945
e 49 629
e 49 244
e 49 521
e 49 724
e 49 298
e 49 421
e 49 191
e 49 310
e 49 452
e 50 528
e 50 984
e 50 859
e 50 809
e 53 317
e 53 251
e 53 780
e 53 359
e 53 696
e 53 460
e 54 134
e 54 168
e 54 988
e 54 566
e 54 547
e 54 358
e 54 726
e 54 802
e 54 491
e 55 330
e 55 774
e 55 527
e 55 965
e 55 740
e 55 492
e 56 426
e 56 662
e 56 216
e 56 607
e 56 871
e 59 484
e 59 277
e 59 158
e 59 893
e 60 114
e 60 200
e 60 868
e 60 935
e 61 714
e 61 449
e 62 565
e 62 965
e 62 399
e 62 71
e 62 452
e 62 156
e 63 658
e 63 155
e 63 621
e 63 826
e 63 323
e 65 698
e 65 875
e 65 299
e 67 943
e 67 944
e 67 252
e 67 808
e 67 200
e 68 937
e 68 711
e 68 592
e 69 621
e 69 938
e 69 452
e 69 351
e 69 863
e 69 635
e 70 75
e 70 355
e 70 95
e 70 353
e 70 344
e 70 998
e 71 635
e 71 83
e 72 984
e 72 977
e 72 530
e 73 292
e 73 146
e 73 678
e 73 682
e 73 114
e 73 188
e 74 971
e 74 775
e 74 530
e 74 940
e 74 761
e 75 373
e 75 544
e 75 590
e 76 988
e 76 645
e 76 603
e 76 298
e 79 763
e 79 904
e 79 748
e 80 382
e 80 873
e 80 989
e 80 636
e 80 103
e 81 811
e 81 585
e 81 754
e 81 512
e 81 420
e 82 591
e 82 285
e 82 179
e 82 976
e 82 797
e 82 256
e 82 348
e 83 688
e 83 811
e 83 732
e 84 994
e 84 661
e 84 246
e 85 681
e 85 218
e 85 292
e 86 171
e 86 147
e 86 151
e 88 899
e 88 636
e 88 683
e 90 783
e 90 974
e 90 735
e 90 788
e 90 711
e 90 175
e 90 228
e 93 590
e 93 634
e 93 684
e 93 276
e 93 554
e 94 149
e 94 876
e 94 694
e 95 511
e 95 530
e 95 728
e 96 773
e 96 837
e 96 308
e 97 900
e 97 349
e 97 987
e 97 600
e 97 426
e 97 121
e 98 265
e 98 727
e 98 774
e 98 605
e 101 767
e 101 726
e 101 420
e 101 739
e 101 332
e 101 188
e 101 808
e 101 714
e 102 798
e 102 203
e 102 673
e 102 237
e 102 959
e 102 290
e 102 351
e 103 349
e 103 562
e 104 544
e 104 897
e 104 230
e 105 964
e 105 129
e 105 760
e 105 747
e 106 224
e 106 919
e 106 261
e 106 292
e 107 330
e 107 452
e 107 832
e 107 822
e 107 324
e 107 900
e 107 451
e 108 853
e 108 987
e 108 544
e 108 316
e 109 382
e 109 930
e 109 207
e 110 886
e 110 948
e 110 440
e 110 913
e 110 302
e 111 460
e 111 995
e 111 421
e 111 220
e 112 882
e 112 139
e 112 449
e 112 867
e 112 669
e 112 646
e 113 868
e 113 780
e 114 796
e 114 952
e 114 429
e 115 533
e 115 646
e 115 632
e 115 913
e 116 599
e 116 896
e 116 690
e 116 680
e 118 130
e 118 407
e 118 888
e 118 692
e 118 398
e 118 731
e 121 869
e 121 191
e 121 187
e 121 499
e 122 533
e 122 235
e 122 288
e 123 996
e 123 310
e 123 276
e 123 299
e 123 145
e 124 703
e 124 381
e 124 432
e 125 271
e 125 296
e 125 479
e 125 600
e 126 981
e 126 577
e 126 371
e 127 560
e 127 980
e 127 180
e 127 389
e 129 154
e 129 781
e 129 306
e 130 977
e 130 133
e 131 499
e 131 990
e 131 343
e 131 323
e 133 409
e 133 189
e 133 578
e 133 764
e 134 914
e 134 258
e 134 509
e 134 892
e 134 332
e 134 680
e 135 348
e 135 557
e 135 372
e 135 139
e 135 343
e 136 611
e 136 986
e 136 672
e 138 867
e 138 905
e 138 972
e 138 425
e 139 422
e 139 321
e 139 555
e 139 718
e 140 365
e 140 975
e 140 307
e 142 412
e 142 535
e 142 983
e 144 717
e 144 362
e 144 855
e 144 654
e 145 533
e 145 547
e 145 389
e 145 270
e 146 351
e 146 863
e 146 163
e 146 726
e 146 673
e 147 813
e 147 879
e 148 810
e 148 961
e 148 908
e 148 434
e 148 201
e 148 612
e 148 980
e 149 432
e 149 842
e 149 779
e 149 187
e 151 508
e 151 565
e 151 924
e 153 158
e 153 301
e 153 705
e 154 903
e 154 487
e 154 814
e 155 499
e 155 218
e 155 946
e 155 297
e 156 919
e 156 791
e 157 954
e 157 230
e 157 426
e 157 771
e 158 892
e 158 236
e 159 894
e 159 553
e 159 936
e 159 628
e 160 405
e 160 485
e 161 494
e 161 957
e 161 171
e 161 733
e 161 894
e 161 465
e 163 515
e 163 628
e 166 440
e 166 612
e 166 887
e 168 341
e 168 715
e 168 629
e 168 494
e 169 803
e 169 354
e 169 351
e 171 831
e 171 590
e 171 507
e 171 847
e 172 484
e 172 977
e 173 530
e 173 923
e 173 635
e 173 586
e 173 669
e 173 276
e 173 774
e 175 218
e 175 903
e 175 454
e 175 734
e 176 489
e 176 669
e 176 739
e 177 850
e 177 406
e 177 937
e 178 560
e 178 544
e 179 811
e 179 737
e 180 677
e 180 595
e 180 351
e 180 535
e 180 555
e 181 813
e 181 688
e 181 360
e 182 688
e 182 436
e 182 744
e 182 875
e 182 229
e 183 329
e 183 285
e 183 552
e 183 626
e 183 619
e 185 354
e 185 814
e 185 877
e 185 661
e 186 601
e 186 900
e 186 937
e 187 769
e 187 828
e 187 527
e 187 645
e 187 956
e 188 808
e 188 864
e 189 550
e 189 896
e 189 619
e 190 846
e 190 543
e 190 788
e 191 198
e 191 400
e 191 252
e 191 563
e 191 825
e 191 662
e 194 668
e 194 197
e 194 564
e 194 684
e 195 825
e 195 693
e 195 995
e 196 615
e 196 728
e 196 382
e 197 446
e 197 752
e 197 406
e 197 769
e 198 518
e 198 712
e 198 397
e 200 977
e 200 983
e 200 436
e 200 483
e 200 938
e 201 352
e 201 261
e 202 994
e 203 501
e 203 650
e 203 262
e 204 754
e 204 659
e 204 781
e 204 658
e 204 904
e 204 535
e 205 591
e 205 982
e 205 352
e 205 988
e 206 218
e 206 434
e 206 263
e 207 228
e 207 676
e 208 867
e 208 693
e 208 703
e 208 276
e 208 236
e 211 251
e 211 966
e 211 611
e 211 978
e 212 632
e 212 914
e 212 678
e 212 764
e 213 574
e 213 550
e 215 807
e 215 354
e 215 943
e 216 378
e 216 957
e 216 824
e 217 681
e 217 637
e 217 728
e 218 226
e 218 875
e 220 451
e 220 408
e 220 846
e 220 234
e 220 775
e 224 757
e 224 914
e 224 631
e 224 409
e 225 583
e 225 373
e 225 313
e 226 821
e 226 748
e 226 355
e 226 883
e 226 999
e 227 354
e 227 533
e 227 702
e 227 732
e 227 228
e 227 574
e 227 824
e 228 547
e 228 338
e 229 674
e 229 953
e 229 280
e 229 328
e 229 747
e 230 762
e 232 534
e 232 850
e 232 338
e 234 325
e 234 772
e 235 739
e 235 598
e 235 532
e 235 601
e 235 842
e 235 905
e 235 265
e 236 854
e 236 583
e 236 670
e 237 919
e 237 740
e 237 367
e 237 979
e 237 583
e 237 751
e 238 951
e 238 518
e 238 317
e 238 325
e 241 371
e 241 718
e 241 833
e 242 359
e 242 334
e 242 811
e 244 952
e 244 311
e 244 721
e 244 445
e 244 960
e 244 793
e 245 544
e 245 998
e 245 728
e 246 998
e 246 506
e 246 543
e 246 575
e 248 668
e 248 906
e 249 364
e 249 727
e 249 579
e 251 339
e 251 689
e 251 897
e 251 819
e 252 579
e 252 507
e 253 533
e 253 656
e 253 989
e 253 442
e 253 966
e 254 900
e 254 906
e 254 334
e 256 547
e 256 455
e 256 695
e 258 414
e 258 941
e 261 813
e 261 356
e 261 772
e 261 304
e 261 819
e 261 632
e 261 562
e 262 746
e 262 733
e 263 565
e 263 589
e 263 726
e 263 999
e 264 440
e 264 319
e 264 819
e 265 468
e 265 607
e 265 554
e 266 834
e 266 589
e 266 598
e 266 873
e 266 307
e 268 869
e 268 810
e 268 724
e 268 467
e 268 745
e 268 443
e 269 561
e 269 506
e 269 692
e 269 731
e 270 722
e 270 557
e 270 774
e 270 534
e 270 409
e 270 838
e 270 442
e 271 302
e 271 889
e 271 653
e 271 382
e 274 681
e 274 670
e 274 898
e 274 577
e 274 467
e 276 904
e 277 694
e 277 490
e 279 603
e 279 996
e 279 319
e 279 602
e 280 649
e 280 901
e 280 743
e 280 659
e 280 543
e 280 615
e 280 699
e 280 770
e 280 347
e 280 995
e 283 626
e 283 630
e 283 302
e 285 380
e 285 798
e 285 452
e 285 659
e 285 512
e 288 512
e 288 735
e 288 657
e 290 867
e 290 689
e 292 441
e 292 850
e 292 372
e 292 701
e 294 789
e 294 449
e 294 586
e 294 819
e 295 883
e 295 359
e 295 353
e 296 587
e 296 529
e 296 747
e 296 597
e 296 471
e 296 620
e 297 937
e 297 935
e 297 717
e 297 919
e 298 627
e 299 618
e 299 336
e 299 301
e 299 399
e 299 677
e 299 371
e 299 532
e 299 620
e 299 476
e 299 609
e 301 428
e 301 682
e 302 779
e 302 913
e 302 507
e 302 809
e 303 828
e 303 765
e 304 888
e 304 417
e 304 864
e 304 435
e 305 452
e 305 514
e 305 513
e 306 494
e 306 625
e 306 628
e 306 547
e 307 752
e 307 969
e 307 734
e 308 919
e 308 343
e 310 455
e 310 876
e 310 412
e 311 553
e 311 784
e 312 570
e 312 539
e 312 524
e 312 498
e 313 635
e 313 390
e 313 478
e 316 505
e 316 476
e 317 900
e 317 772
e 317 558
e 317 914
e 317 930
e 318 585
e 318 496
e 318 630
e 318 339
e 318 525
e 319 855
e 319 690
e 319 661
e 321 853
e 321 965
e 321 578
e 321 443
e 323 898
e 323 888
e 324 952
e 324 746
e 324 672
e 325 920
e 325 414
e 325 509
e 325 568
e 328 425
e 328 523
e 329 850
e 329 661
e 330 514
e 331 870
e 331 631
e 331 928
e 331 750
e 332 968
e 334 957
e 336 728
e 336 503
e 336 513
e 338 435
e 338 501
e 338 513
e 338 904
e 338 409
e 338 520
e 339 544
e 339 959
e 339 445
e 340 437
e 340 389
e 340 980
e 340 898
e 340 467
e 341 351
e 341 468
e 343 681
e 343 823
e 343 726
e 344 464
e 344 446
e 347 751
e 347 601
e 348 366
e 348 537
e 349 928
e 349 782
e 349 746
e 349 617
e 351 646
e 352 369
e 352 682
e 352 972
e 352 452
e 352 824
e 352 799
e 353 495
e 354 896
e 354 695
e 355 770
e 355 972
e 355 599
e 355 877
e 355 904
e 356 422
e 356 435
e 356 739
e 358 802
e 358 750
e 358 855
e 358 530
e 358 581
e 358 799
e 359 841
e 359 487
e 359 370
e 360 751
e 360 625
e 360 663
e 360 757
e 361 503
e 361 972
e 361 677
e 362 701
e 362 957
e 362 379
e 362 837
e 364 757
e 364 894
e 364 437
e 364 621
e 365 604
e 365 489
e 366 369
e 366 525
e 366 391
e 366 763
e 366 440
e 367 968
e 367 792
e 367 546
e 367 747
e 369 505
e 369 403
e 369 870
e 370 662
e 370 489
e 371 858
e 371 986
e 371 923
e 371 816
e 371 964
e 371 705
e 371 928
e 372 826
e 372 711
e 373 484
e 373 605
e 373 796
e 373 698
e 378 938
e 378 820
e 378 397
e 378 560
e 379 413
e 379 654
e 379 893
e 379 959
e 380 864
e 380 673
e 381 513
e 381 915
e 381 822
e 382 818
e 382 782
e 382 605
e 383 715
e 383 532
e 383 974
e 383 599
e 384 961
e 384 740
e 384 497
e 386 397
e 386 533
e 386 720
e 387 662
e 387 503
e 387 980
e 388 876
e 388 475
e 388 958
e 389 684
e 390 874
e 390 735
e 391 557
e 391 400
e 391 669
e 391 405
e 391 688
e 391 863
e 397 630
e 397 740
e 397 430
e 398 813
e 399 588
e 399 923
e 399 728
e 399 557
e 400 564
e 400 779
e 400 980
e 400 642
e 403 713
e 403 823
e 404 650
e 404 454
e 404 847
e 404 816
e 404 696
e 405 612
e 405 999
e 405 515
e 406 933
e 406 466
e 406 612
e 406 522
e 407 970
e 407 841
e 408 693
e 408 528
e 408 853
e 408 689
e 409 543
e 409 451
e 409 420
e 412 640
e 412 919
e 412 590
e 413 465
e 413 883
e 414 951
e 414 485
e 414 955
e 414 426
e 416 575
e 416 915
e 416 629
e 416 702
e 417 442
e 418 760
e 418 938
e 418 456
e 418 505
e 420 659
e 420 726
e 420 858
e 420 796
e 420 868
e 420 464
e 421 709
e 421 952
e 421 905
e 422 874
e 422 542
e 425 743
e 425 974
e 425 637
e 426 892
e 426 554
e 427 634
e 427 455
e 427 908
e 427 944
e 427 498
e 428 510
e 428 475
e 429 684
e 429 899
e 430 446
e 430 903
e 430 859
e 430 575
e 432 737
e 432 520
e 432 937
e 432 819
e 434 495
e 434 546
e 434 879
e 435 466
e 435 964
e 435 483
e 436 906
e 436 826
e 436 611
e 437 824
e 437 504
e 440 560
e 440 886
e 440 787
e 440 841
e 441 731
e 441 592
e 442 886
e 443 763
e 443 823
e 444 518
e 444 853
e 444 604
e 444 901
e 445 767
e 445 804
e 445 642
e 446 638
e 446 767
e 449 982
e 449 486
e 450 762
e 450 983
e 450 755
e 451 836
e 452 877
e 452 804
e 452 524
e 453 728
e 453 939
e 453 962
e 453 885
e 454 763
e 454 511
e 454 775
e 454 609
e 455 457
e 455 963
e 455 628
e 455 807
e 456 581
e 456 756
e 457 838
e 457 807
e 457 846
e 460 869
e 462 749
e 462 702
e 462 757
e 464 711
e 464 990
e 464 664
e 465 748
e 466 722
e 466 696
e 466 532
e 467 744
e 467 859
e 467 564
e 467 951
e 468 594
e 468 499
e 471 676
e 471 898
e 471 1000
e 471 501
e 471 537
e 474 566
e 474 898
e 474 796
e 474 501
e 475 751
e 475 775
e 476 589
e 476 755
e 478 728
e 478 496
e 479 712
e 479 705
e 479 894
e 479 773
e 479 497
e 480 706
e 480 689
e 480 750
e 483 789
e 484 750
e 485 941
e 486 993
e 486 933
e 486 948
e 486 508
e 487 989
e 487 678
e 489 810
e 489 575
e 490 960
e 490 821
e 490 620
e 491 745
e 491 716
e 492 651
e 492 981
e 492 735
e 495 799
e 495 615
e 495 626
e 495 661
e 496 728
e 496 671
e 496 750
e 496 973
e 496 680
e 497 847
e 498 771
e 498 521
e 498 535
e 498 541
e 499 705
e 499 551
e 499 734
e 502 906
e 502 803
e 502 723
e 503 505
e 503 814
e 503 870
e 504 843
e 504 863
e 505 797
e 505 985
e 506 684
e 506 544
e 506 789
e 508 617
e 509 674
e 510 539
e 510 536
e 511 692
e 513 644
e 513 581
e 513 772
e 514 920
e 515 982
e 515 945
e 515 566
e 520 678
e 520 591
e 520 896
e 520 993
e 522 755
e 522 539
e 522 814
e 522 996
e 522 975
e 523 953
e 523 816
e 524 954
e 525 702
e 525 992
e 527 653
e 528 627
e 528 799
e 529 633
e 529 760
e 530 602
e 530 787
e 530 579
e 530 838
e 534 978
e 534 896
e 535 574
e 535 1000
e 535 730
e 535 940
e 535 628
e 535 651
e 535 566
e 536 577
e 537 706
e 539 752
e 541 954
e 541 820
e 542 972
e 542 739
e 543 955
e 544 853
e 544 863
e 546 657
e 547 640
e 547 586
e 547 901
e 547 638
e 550 906
e 550 735
e 550 615
e 551 899
e 551 846
e 551 762
e 552 955
e 552 566
e 552 751
e 553 637
e 553 986
e 554 734
e 554 712
e 555 722
e 555 974
e 557 601
e 557 946
e 557 965
e 557 599
e 558 876
e 558 955
e 558 792
e 560 920
e 561 605
e 561 906
e 562 924
e 563 649
e 563 916
e 564 700
e 565 678
e 566 930
e 566 854
e 566 762
e 566 874
e 568 773
e 570 634
e 570 609
e 574 842
e 575 966
e 575 920
e 575 955
e 577 907
e 577 953
e 578 775
e 579 594
e 581 668
e 581 846
e 583 837
e 583 598
e 583 735
e 585 654
e 585 903
e 586 813
e 586 886
e 587 980
e 587 618
e 588 711
e 588 688
e 589 797
e 589 898
e 590 971
e 590 969
e 590 752
e 591 596
e 592 701
e 592 837
e 594 826
e 594 676
e 595 699
e 595 994
e 595 878
e 595 695
e 595 791
e 596 906
e 596 728
e 596 992
e 596 883
e 597 897
e 597 985
e 597 631
e 598 748
e 598 619
e 599 993
e 599 887
e 600 975
e 601 766
e 602 674
e 603 611
e 604 699
e 604 971
e 604 754
e 605 694
e 605 846
e 605 794
e 607 889
e 607 753
e 607 659
e 609 706
e 609 707
e 611 701
e 612 743
e 612 812
e 613 919
e 613 615
e 613 973
e 613 946
e 613 760
e 615 868
e 617 834
e 617 797
e 618 659
e 618 697
e 618 634
e 618 803
e 620 752
e 620 834
e 621 931
e 621 705
e 621 625
e 621 981
e 625 711
e 626 888
e 627 907
e 627 908
e 627 645
e 628 892
e 630 992
e 630 982
e 630 797
e 631 730
e 631 713
e 633 797
e 633 970
e 634 808
e 634 670
e 634 739
e 635 696
e 635 943
e 635 897
e 635 792
e 636 684
e 637 771
e 638 700
e 638 941
e 638 663
e 640 664
e 640 939
e 642 908
e 644 895
e 644 651
e 645 916
e 646 853
e 646 979
e 649 859
e 650 978
e 651 671
e 653 984
e 653 822
e 654 820
e 656 867
e 656 756
e 656 683
e 657 845
e 657 968
e 657 986
e 658 752
e 661 770
e 661 960
e 661 720
e 662 892
e 662 663
e 662 705
e 664 770
e 668 885
e 668 723
e 669 956
e 669 841
e 670 892
e 670 885
e 670 793
e 671 837
e 672 767
e 677 877
e 677 682
e 677 954
e 678 711
e 678 898
e 680 904
e 682 714
e 682 783
e 682 871
e 682 874
e 683 730
e 684 936
e 684 826
e 688 828
e 688 846
e 688 753
e 688 736
e 689 690
e 692 979
e 694 915
e 694 980
e 695 864
e 696 985
e 696 822
e 696 784
e 697 905
e 697 984
e 698 714
e 699 794
e 699 923
e 700 958
e 701 764
e 701 831
e 702 882
e 703 963
e 705 936
e 705 715
e 706 882
e 707 716
e 707 813
e 709 945
e 709 924
e 711 883
e 713 899
e 713 928
e 713 724
e 714 854
e 714 968
e 714 936
e 715 910
e 715 876
e 715 727
e 716 784
e 717 963
e 718 720
e 720 752
e 720 960
e 721 757
e 721 766
e 723 957
e 723 986
e 724 793
e 726 810
e 731 792
e 732 757
e 733 812
e 734 745
e 736 999
e 736 939
e 736 811
e 736 744
e 737 923
e 737 895
e 737 804
e 740 951
e 740 976
e 743 896
e 744 957
e 744 977
e 744 924
e 745 834
e 745 974
e 745 966
e 746 941
e 747 821
e 748 833
e 748 968
e 749 859
e 751 799
e 751 897
e 751 840
e 752 802
e 752 840
e 753 770
e 754 769
e 754 807
e 755 908
e 756 845
e 757 933
e 760 901
e 761 808
e 761 976
e 762 870
e 762 899
e 763 782
e 764 864
e 764 770
e 765 809
e 765 850
e 766 797
e 766 869
e 770 978
e 771 845
e 772 970
e 773 988
e 774 803
e 774 878
e 775 973
e 775 878
e 775 877
e 780 910
e 781 900
e 783 901
e 783 895
e 787 832
e 787 993
e 788 791
e 791 796
e 792 962
e 792 877
e 794 831
e 794 987
e 794 965
e 798 962
e 799 972
e 802 819
e 807 965
e 811 863
e 811 960
e 816 853
e 818 875
e 818 893
e 823 982
e 824 972
e 825 894
e 825 954
e 828 960
e 831 954
e 832 886
e 832 843
e 833 904
e 836 901
e 836 954
e 840 938
e 843 940
e 843 979
e 843 879
e 846 893
e 854 876
e 854 981
e 855 873
e 859 907
e 864 940
e 867 887
e 870 907
e 871 914
e 873 901
e 879 968
e 887 961
e 888 901
e 896 944
e 898 910
e 900 992
e 914 960
e 914 999
e 916 948
e 923 994
e 930 952
e 935 979
e 935 961
e 951 957
e 953 962
e 954 986
e 963 981
e 966 999
e 969 982
e 969 970
e 970 978
e 990 998
