txt_Ins/graph-1000-305.txt
n 1000
e 2 452
e 2 467
e 2 679
e 2 329
e 4 235
e 4 748
e 4 695
e 4 863
e 4 759
e 4 927
e 5 39
e 5 734
e 5 968
e 5 323
e 5 831
e 5 416
e 5 434
e 6 668
e 6 412
e 6 302
e 6 930
e 7 586
e 7 459
e 7 787
e 7 907
e 8 284
e 8 957
e 8 201
e 8 535
e 8 751
e 8 177
e 8 340
e 9 66
e 9 322
e 9 10
e 9 212
e 9 158
e 9 159
e 10 999
e 10 692
e 10 896
e 10 587
e 10 339
e 12 361
e 12 862
e 12 538
e 12 792
e 12 234
e 14 420
e 14 74
e 14 827
e 14 255
e 15 265
e 15 857
e 15 702
e 15 683
e 15 484
e 16 247
e 16 745
e 16 670
e 17 918
e 17 955
e 17 951
e 17 603
e 18 520
e 18 248
e 18 388
e 18 200
e 18 594
e 19 912
e 19 44
e 19 463
e 19 111
e 19 47
e 23 339
e 23 745
e 23 546
e 23 162
e 23 527
e 23 302
e 23 961
e 23 397
e 24 810
e 24 315
e 24 927
e 24 498
e 25 182
e 25 811
e 25 282
e 25 385
e 27 811
e 27 92
e 27 977
e 27 895
e 27 560
e 28 567
e 28 979
e 28 894
e 28 619
e 29 842
e 29 819
e 29 112
e 30 708
e 30 722
e 30 145
e 30 200
e 30 270
e 30 754
e 31 236
e 31 123
e 31 434
e 31 589
e 32 180
e 32 134
e 32 442
e 32 606
e 32 129
e 33 624
e 33 179
e 33 335
e 33 765
e 35 490
e 35 562
e 35 171
e 35 888
e 36 126
e 36 120
e 36 601
e 36 927
e 36 679
e 36 732
e 36 190
e 36 780
e 36 930
e 37 754
e 37 201
e 37 160
e 39 562
e 39 761
e 40 68
e 40 748
e 40 689
e 40 923
e 40 601
e 41 405
e 41 501
e 41 60
e 41 698
e 41 121
e 41 333
e 41 522
e 42 512
e 42 223
e 42 365
e 42 128
e 42 295
e 42 439
e 42 710
e 42 795
e 43 117
e 43 147
e 43 105
e 43 73
e 43 720
e 44 977
e 44 681
e 44 411
e 44 385
e 44 461
e 44 698
e 45 108
e 45 636
e 45 496
e 45 944
e 45 634
e 46 148
e 46 112
e 46 522
e 46 683
e 46 298
e 46 611
e 47 715
e 47 337
e 47 268
e 47 483
e 47 944
e 48 628
e 48 243
e 48 520
e 48 723
e 48 297
e 48 420
e 48 190
e 48 309
e 48 451
e 49 527
e 49 983
e 49 858
e 49 808
e 52 316
e 52 250
e 52 779
e 52 358
e 52 695
e 52 459
e 53 133
e 53 167
e 53 987
e 53 565
e 53 546
e 53 357
e 53 725
e 53 801
e 53 490
e 54 329
e 54 773
e 54 526
e 54 964
e 54 739
e 54 491
e 55 425
e 55 661
e 55 215
e 55 606
e 55 870
e 58 483
e 58 276
e 58 157
e 58 892
e 59 113
e 59 199
e 59 867
e 59 934
e 60 713
e 60 448
e 61 564
e 61 964
e 61 398
e 61 70
e 61 451
e 61 155
e 62 657
e 62 154
e 62 620
e 62 825
e 62 322
e 64 697
e 64 874
e 64 298
e 66 942
e 66 943
e 66 251
e 66 807
e 66 199
e 67 936
e 67 710
e 67 591
e 68 620
e 68 937
e 68 451
e 68 350
e 68 862
e 68 634
e 69 74
e 69 354
e 69 94
e 69 352
e 69 343
e 69 997
e 70 634
e 70 82
e 71 983
e 71 976
e 71 529
e 72 291
e 72 145
e 72 677
e 72 681
e 72 113
e 72 187
e 73 970
e 73 774
e 73 529
e 73 939
e 73 760
e 74 372
e 74 543
e 74 589
e 75 987
e 75 644
e 75 602
e 75 297
e 78 762
e 78 903
e 78 747
e 79 381
e 79 872
e 79 988
e 79 635
e 79 102
e 80 810
e 80 584
e 80 753
e 80 511
e 80 419
e 81 590
e 81 284
e 81 178
e 81 975
e 81 796
e 81 255
e 81 347
e 82 687
e 82 810
e 82 731
e 83 993
e 83 660
e 83 245
e 84 680
e 84 217
e 84 291
e 85 170
e 85 146
e 85 150
e 87 898
e 87 635
e 87 682
e 89 782
e 89 973
e 89 734
e 89 787
e 89 710
e 89 174
e 89 227
e 92 589
e 92 633
e 92 683
e 92 275
e 92 553
e 93 148
e 93 875
e 93 693
e 94 510
e 94 529
e 94 727
e 95 772
e 95 836
e 95 307
e 96 899
e 96 348
e 96 986
e 96 599
e 96 425
e 96 120
e 97 264
e 97 726
e 97 773
e 97 604
e 100 766
e 100 725
e 100 419
e 100 738
e 100 331
e 100 187
e 100 807
e 100 713
e 101 797
e 101 202
e 101 672
e 101 236
e 101 958
e 101 289
e 101 350
e 102 348
e 102 561
e 103 543
e 103 896
e 103 229
e 104 963
e 104 128
e 104 759
e 104 746
e 105 223
e 105 918
e 105 260
e 105 291
e 106 329
e 106 451
e 106 831
e 106 821
e 106 323
e 106 899
e 106 450
e 107 852
e 107 986
e 107 543
e 107 315
e 108 381
e 108 929
e 108 206
e 109 885
e 109 947
e 109 439
e 109 912
e 109 301
e 110 459
e 110 994
e 110 420
e 110 219
e 111 881
e 111 138
e 111 448
e 111 866
e 111 668
e 111 645
e 112 867
e 112 779
e 113 795
e 113 951
e 113 428
e 114 532
e 114 645
e 114 631
e 114 912
e 115 598
e 115 895
e 115 689
e 115 679
e 117 129
e 117 406
e 117 887
e 117 691
e 117 397
e 117 730
e 120 868
e 120 190
e 120 186
e 120 498
e 121 532
e 121 234
e 121 287
e 122 995
e 122 309
e 122 275
e 122 298
e 122 144
e 123 702
e 123 380
e 123 431
e 124 270
e 124 295
e 124 478
e 124 599
e 125 980
e 125 576
e 125 370
e 126 559
e 126 979
e 126 179
e 126 388
e 128 153
e 128 780
e 128 305
e 129 976
e 129 132
e 130 498
e 130 989
e 130 342
e 130 322
e 132 408
e 132 188
e 132 577
e 132 763
e 133 913
e 133 257
e 133 508
e 133 891
e 133 331
e 133 679
e 134 347
e 134 556
e 134 371
e 134 138
e 134 342
e 135 610
e 135 985
e 135 671
e 137 866
e 137 904
e 137 971
e 137 424
e 138 421
e 138 320
e 138 554
e 138 717
e 139 364
e 139 974
e 139 306
e 141 411
e 141 534
e 141 982
e 143 716
e 143 361
e 143 854
e 143 653
e 144 532
e 144 546
e 144 388
e 144 269
e 145 350
e 145 862
e 145 162
e 145 725
e 145 672
e 146 812
e 146 878
e 147 809
e 147 960
e 147 907
e 147 433
e 147 200
e 147 611
e 147 979
e 148 431
e 148 841
e 148 778
e 148 186
e 150 507
e 150 564
e 150 923
e 152 157
e 152 300
e 152 704
e 153 902
e 153 486
e 153 813
e 154 498
e 154 217
e 154 945
e 154 296
e 155 918
e 155 790
e 156 953
e 156 229
e 156 425
e 156 770
e 157 891
e 157 235
e 158 893
e 158 552
e 158 935
e 158 627
e 159 404
e 159 484
e 160 493
e 160 956
e 160 170
e 160 732
e 160 893
e 160 464
e 162 514
e 162 627
e 165 439
e 165 611
e 165 886
e 167 340
e 167 714
e 167 628
e 167 493
e 168 802
e 168 353
e 168 350
e 170 830
e 170 589
e 170 506
e 170 846
e 171 483
e 171 976
e 172 529
e 172 922
e 172 634
e 172 585
e 172 668
e 172 275
e 172 773
e 174 217
e 174 902
e 174 453
e 174 733
e 175 488
e 175 668
e 175 738
e 176 849
e 176 405
e 176 936
e 177 559
e 177 543
e 178 810
e 178 736
e 179 676
e 179 594
e 179 350
e 179 534
e 179 554
e 180 812
e 180 687
e 180 359
e 181 687
e 181 435
e 181 743
e 181 874
e 181 228
e 182 328
e 182 284
e 182 551
e 182 625
e 182 618
e 184 353
e 184 813
e 184 876
e 184 660
e 185 600
e 185 899
e 185 936
e 186 768
e 186 827
e 186 526
e 186 644
e 186 955
e 187 807
e 187 863
e 188 549
e 188 895
e 188 618
e 189 845
e 189 542
e 189 787
e 190 197
e 190 399
e 190 251
e 190 562
e 190 824
e 190 661
e 193 667
e 193 196
e 193 563
e 193 683
e 194 824
e 194 692
e 194 994
e 195 614
e 195 727
e 195 381
e 196 445
e 196 751
e 196 405
e 196 768
e 197 517
e 197 711
e 197 396
e 199 976
e 199 982
e 199 435
e 199 482
e 199 937
e 200 351
e 200 260
e 201 993
e 202 500
e 202 649
e 202 261
e 203 753
e 203 658
e 203 780
e 203 657
e 203 903
e 203 534
e 204 590
e 204 981
e 204 351
e 204 987
e 205 217
e 205 433
e 205 262
e 206 227
e 206 675
e 207 866
e 207 692
e 207 702
e 207 275
e 207 235
e 210 250
e 210 965
e 210 610
e 210 977
e 211 631
e 211 913
e 211 677
e 211 763
e 212 573
e 212 549
e 214 806
e 214 353
e 214 942
e 215 377
e 215 956
e 215 823
e 216 680
e 216 636
e 216 727
e 217 225
e 217 874
e 219 450
e 219 407
e 219 845
e 219 233
e 219 774
e 223 756
e 223 913
e 223 630
e 223 408
e 224 582
e 224 372
e 224 312
e 225 820
e 225 747
e 225 354
e 225 882
e 225 998
e 226 353
e 226 532
e 226 701
e 226 731
e 226 227
e 226 573
e 226 823
e 227 546
e 227 337
e 228 673
e 228 952
e 228 279
e 228 327
e 228 746
e 229 761
e 231 533
e 231 849
e 231 337
e 233 324
e 233 771
e 234 738
e 234 597
e 234 531
e 234 600
e 234 841
e 234 904
e 234 264
e 235 853
e 235 582
e 235 669
e 236 918
e 236 739
e 236 366
e 236 978
e 236 582
e 236 750
e 237 950
e 237 517
e 237 316
e 237 324
e 240 370
e 240 717
e 240 832
e 241 358
e 241 333
e 241 810
e 243 951
e 243 310
e 243 720
e 243 444
e 243 959
e 243 792
e 244 543
e 244 997
e 244 727
e 245 997
e 245 505
e 245 542
e 245 574
e 247 667
e 247 905
e 248 363
e 248 726
e 248 578
e 250 338
e 250 688
e 250 896
e 250 818
e 251 578
e 251 506
e 252 532
e 252 655
e 252 988
e 252 441
e 252 965
e 253 899
e 253 905
e 253 333
e 255 546
e 255 454
e 255 694
e 257 413
e 257 940
e 260 812
e 260 355
e 260 771
e 260 303
e 260 818
e 260 631
e 260 561
e 261 745
e 261 732
e 262 564
e 262 588
e 262 725
e 262 998
e 263 439
e 263 318
e 263 818
e 264 467
e 264 606
e 264 553
e 265 833
e 265 588
e 265 597
e 265 872
e 265 306
e 267 868
e 267 809
e 267 723
e 267 466
e 267 744
e 267 442
e 268 560
e 268 505
e 268 691
e 268 730
e 269 721
e 269 556
e 269 773
e 269 533
e 269 408
e 269 837
e 269 441
e 270 301
e 270 888
e 270 652
e 270 381
e 273 680
e 273 669
e 273 897
e 273 576
e 273 466
e 275 903
e 276 693
e 276 489
e 278 602
e 278 995
e 278 318
e 278 601
e 279 648
e 279 900
e 279 742
e 279 658
e 279 542
e 279 614
e 279 698
e 279 769
e 279 346
e 279 994
e 282 625
e 282 629
e 282 301
e 284 379
e 284 797
e 284 451
e 284 658
e 284 511
e 287 511
e 287 734
e 287 656
e 289 866
e 289 688
e 291 440
e 291 849
e 291 371
e 291 700
e 293 788
e 293 448
e 293 585
e 293 818
e 294 882
e 294 358
e 294 352
e 295 586
e 295 528
e 295 746
e 295 596
e 295 470
e 295 619
e 296 936
e 296 934
e 296 716
e 296 918
e 297 626
e 298 617
e 298 335
e 298 300
e 298 398
e 298 676
e 298 370
e 298 531
e 298 619
e 298 475
e 298 608
e 300 427
e 300 681
e 301 778
e 301 912
e 301 506
e 301 808
e 302 827
e 302 764
e 303 887
e 303 416
e 303 863
e 303 434
e 304 451
e 304 513
e 304 512
e 305 493
e 305 624
e 305 627
e 305 546
e 306 751
e 306 968
e 306 733
e 307 918
e 307 342
e 309 454
e 309 875
e 309 411
e 310 552
e 310 783
e 311 569
e 311 538
e 311 523
e 311 497
e 312 634
e 312 389
e 312 477
e 315 504
e 315 475
e 316 899
e 316 771
e 316 557
e 316 913
e 316 929
e 317 584
e 317 495
e 317 629
e 317 338
e 317 524
e 318 854
e 318 689
e 318 660
e 320 852
e 320 964
e 320 577
e 320 442
e 322 897
e 322 887
e 323 951
e 323 745
e 323 671
e 324 919
e 324 413
e 324 508
e 324 567
e 327 424
e 327 522
e 328 849
e 328 660
e 329 513
e 330 869
e 330 630
e 330 927
e 330 749
e 331 967
e 333 956
e 335 727
e 335 502
e 335 512
e 337 434
e 337 500
e 337 512
e 337 903
e 337 408
e 337 519
e 338 543
e 338 958
e 338 444
e 339 436
e 339 388
e 339 979
e 339 897
e 339 466
e 340 350
e 340 467
e 342 680
e 342 822
e 342 725
e 343 463
e 343 445
e 346 750
e 346 600
e 347 365
e 347 536
e 348 927
e 348 781
e 348 745
e 348 616
e 350 645
e 351 368
e 351 681
e 351 971
e 351 451
e 351 823
e 351 798
e 352 494
e 353 895
e 353 694
e 354 769
e 354 971
e 354 598
e 354 876
e 354 903
e 355 421
e 355 434
e 355 738
e 357 801
e 357 749
e 357 854
e 357 529
e 357 580
e 357 798
e 358 840
e 358 486
e 358 369
e 359 750
e 359 624
e 359 662
e 359 756
e 360 502
e 360 971
e 360 676
e 361 700
e 361 956
e 361 378
e 361 836
e 363 756
e 363 893
e 363 436
e 363 620
e 364 603
e 364 488
e 365 368
e 365 524
e 365 390
e 365 762
e 365 439
e 366 967
e 366 791
e 366 545
e 366 746
e 368 504
e 368 402
e 368 869
e 369 661
e 369 488
e 370 857
e 370 985
e 370 922
e 370 815
e 370 963
e 370 704
e 370 927
e 371 825
e 371 710
e 372 483
e 372 604
e 372 795
e 372 697
e 377 937
e 377 819
e 377 396
e 377 559
e 378 412
e 378 653
e 378 892
e 378 958
e 379 863
e 379 672
e 380 512
e 380 914
e 380 821
e 381 817
e 381 781
e 381 604
e 382 714
e 382 531
e 382 973
e 382 598
e 383 960
e 383 739
e 383 496
e 385 396
e 385 532
e 385 719
e 386 661
e 386 502
e 386 979
e 387 875
e 387 474
e 387 957
e 388 683
e 389 873
e 389 734
e 390 556
e 390 399
e 390 668
e 390 404
e 390 687
e 390 862
e 396 629
e 396 739
e 396 429
e 397 812
e 398 587
e 398 922
e 398 727
e 398 556
e 399 563
e 399 778
e 399 979
e 399 641
e 402 712
e 402 822
e 403 649
e 403 453
e 403 846
e 403 815
e 403 695
e 404 611
e 404 998
e 404 514
e 405 932
e 405 465
e 405 611
e 405 521
e 406 969
e 406 840
e 407 692
e 407 527
e 407 852
e 407 688
e 408 542
e 408 450
e 408 419
e 411 639
e 411 918
e 411 589
e 412 464
e 412 882
e 413 950
e 413 484
e 413 954
e 413 425
e 415 574
e 415 914
e 415 628
e 415 701
e 416 441
e 417 759
e 417 937
e 417 455
e 417 504
e 419 658
e 419 725
e 419 857
e 419 795
e 419 867
e 419 463
e 420 708
e 420 951
e 420 904
e 421 873
e 421 541
e 424 742
e 424 973
e 424 636
e 425 891
e 425 553
e 426 633
e 426 454
e 426 907
e 426 943
e 426 497
e 427 509
e 427 474
e 428 683
e 428 898
e 429 445
e 429 902
e 429 858
e 429 574
e 431 736
e 431 519
e 431 936
e 431 818
e 433 494
e 433 545
e 433 878
e 434 465
e 434 963
e 434 482
e 435 905
e 435 825
e 435 610
e 436 823
e 436 503
e 439 559
e 439 885
e 439 786
e 439 840
e 440 730
e 440 591
e 441 885
e 442 762
e 442 822
e 443 517
e 443 852
e 443 603
e 443 900
e 444 766
e 444 803
e 444 641
e 445 637
e 445 766
e 448 981
e 448 485
e 449 761
e 449 982
e 449 754
e 450 835
e 451 876
e 451 803
e 451 523
e 452 727
e 452 938
e 452 961
e 452 884
e 453 762
e 453 510
e 453 774
e 453 608
e 454 456
e 454 962
e 454 627
e 454 806
e 455 580
e 455 755
e 456 837
e 456 806
e 456 845
e 459 868
e 461 748
e 461 701
e 461 756
e 463 710
e 463 989
e 463 663
e 464 747
e 465 721
e 465 695
e 465 531
e 466 743
e 466 858
e 466 563
e 466 950
e 467 593
e 467 498
e 470 675
e 470 897
e 470 999
e 470 500
e 470 536
e 473 565
e 473 897
e 473 795
e 473 500
e 474 750
e 474 774
e 475 588
e 475 754
e 477 727
e 477 495
e 478 711
e 478 704
e 478 893
e 478 772
e 478 496
e 479 705
e 479 688
e 479 749
e 482 788
e 483 749
e 484 940
e 485 992
e 485 932
e 485 947
e 485 507
e 486 988
e 486 677
e 488 809
e 488 574
e 489 959
e 489 820
e 489 619
e 490 744
e 490 715
e 491 650
e 491 980
e 491 734
e 494 798
e 494 614
e 494 625
e 494 660
e 495 727
e 495 670
e 495 749
e 495 972
e 495 679
e 496 846
e 497 770
e 497 520
e 497 534
e 497 540
e 498 704
e 498 550
e 498 733
e 501 905
e 501 802
e 501 722
e 502 504
e 502 813
e 502 869
e 503 842
e 503 862
e 504 796
e 504 984
e 505 683
e 505 543
e 505 788
e 507 616
e 508 673
e 509 538
e 509 535
e 510 691
e 512 643
e 512 580
e 512 771
e 513 919
e 514 981
e 514 944
e 514 565
e 519 677
e 519 590
e 519 895
e 519 992
e 521 754
e 521 538
e 521 813
e 521 995
e 521 974
e 522 952
e 522 815
e 523 953
e 524 701
e 524 991
e 526 652
e 527 626
e 527 798
e 528 632
e 528 759
e 529 601
e 529 786
e 529 578
e 529 837
e 533 977
e 533 895
e 534 573
e 534 999
e 534 729
e 534 939
e 534 627
e 534 650
e 534 565
e 535 576
e 536 705
e 538 751
e 540 953
e 540 819
e 541 971
e 541 738
e 542 954
e 543 852
e 543 862
e 545 656
e 546 639
e 546 585
e 546 900
e 546 637
e 549 905
e 549 734
e 549 614
e 550 898
e 550 845
e 550 761
e 551 954
e 551 565
e 551 750
e 552 636
e 552 985
e 553 733
e 553 711
e 554 721
e 554 973
e 556 600
e 556 945
e 556 964
e 556 598
e 557 875
e 557 954
e 557 791
e 559 919
e 560 604
e 560 905
e 561 923
e 562 648
e 562 915
e 563 699
e 564 677
e 565 929
e 565 853
e 565 761
e 565 873
e 567 772
e 569 633
e 569 608
e 573 841
e 574 965
e 574 919
e 574 954
e 576 906
e 576 952
e 577 774
e 578 593
e 580 667
e 580 845
e 582 836
e 582 597
e 582 734
e 584 653
e 584 902
e 585 812
e 585 885
e 586 979
e 586 617
e 587 710
e 587 687
e 588 796
e 588 897
e 589 970
e 589 968
e 589 751
e 590 595
e 591 700
e 591 836
e 593 825
e 593 675
e 594 698
e 594 993
e 594 877
e 594 694
e 594 790
e 595 905
e 595 727
e 595 991
e 595 882
e 596 896
e 596 984
e 596 630
e 597 747
e 597 618
e 598 992
e 598 886
e 599 974
e 600 765
e 601 673
e 602 610
e 603 698
e 603 970
e 603 753
e 604 693
e 604 845
e 604 793
e 606 888
e 606 752
e 606 658
e 608 705
e 608 706
e 610 700
e 611 742
e 611 811
e 612 918
e 612 614
e 612 972
e 612 945
e 612 759
e 614 867
e 616 833
e 616 796
e 617 658
e 617 696
e 617 633
e 617 802
e 619 751
e 619 833
e 620 930
e 620 704
e 620 624
e 620 980
e 624 710
e 625 887
e 626 906
e 626 907
e 626 644
e 627 891
e 629 991
e 629 981
e 629 796
e 630 729
e 630 712
e 632 796
e 632 969
e 633 807
e 633 669
e 633 738
e 634 695
e 634 942
e 634 896
e 634 791
e 635 683
e 636 770
e 637 699
e 637 940
e 637 662
e 639 663
e 639 938
e 641 907
e 643 894
e 643 650
e 644 915
e 645 852
e 645 978
e 648 858
e 649 977
e 650 670
e 652 983
e 652 821
e 653 819
e 655 866
e 655 755
e 655 682
e 656 844
e 656 967
e 656 985
e 657 751
e 660 769
e 660 959
e 660 719
e 661 891
e 661 662
e 661 704
e 663 769
e 667 884
e 667 722
e 668 955
e 668 840
e 669 891
e 669 884
e 669 792
e 670 836
e 671 766
e 676 876
e 676 681
e 676 953
e 677 710
e 677 897
e 679 903
e 681 713
e 681 782
e 681 870
e 681 873
e 682 729
e 683 935
e 683 825
e 687 827
e 687 845
e 687 752
e 687 735
e 688 689
e 691 978
e 693 914
e 693 979
e 694 863
e 695 984
e 695 821
e 695 783
e 696 904
e 696 983
e 697 713
e 698 793
e 698 922
e 699 957
e 700 763
e 700 830
e 701 881
e 702 962
e 704 935
e 704 714
e 705 881
e 706 715
e 706 812
e 708 944
e 708 923
e 710 882
e 712 898
e 712 927
e 712 723
e 713 853
e 713 967
e 713 935
e 714 909
e 714 875
e 714 726
e 715 783
e 716 962
e 717 719
e 719 751
e 719 959
e 720 756
e 720 765
e 722 956
e 722 985
e 723 792
e 725 809
e 730 791
e 731 756
e 732 811
e 733 744
e 735 998
e 735 938
e 735 810
e 735 743
e 736 922
e 736 894
e 736 803
e 739 950
e 739 975
e 742 895
e 743 956
e 743 976
e 743 923
e 744 833
e 744 973
e 744 965
e 745 940
e 746 820
e 747 832
e 747 967
e 748 858
e 750 798
e 750 896
e 750 839
e 751 801
e 751 839
e 752 769
e 753 768
e 753 806
e 754 907
e 755 844
e 756 932
e 759 900
e 760 807
e 760 975
e 761 869
e 761 898
e 762 781
e 763 863
e 763 769
e 764 808
e 764 849
e 765 796
e 765 868
e 769 977
e 770 844
e 771 969
e 772 987
e 773 802
e 773 877
e 774 972
e 774 877
e 774 876
e 779 909
e 780 899
e 782 900
e 782 894
e 786 831
e 786 992
e 787 790
e 790 795
e 791 961
e 791 876
e 793 830
e 793 986
e 793 964
e 797 961
e 798 971
e 801 818
e 806 964
e 810 862
e 810 959
e 815 852
e 817 874
e 817 892
e 822 981
e 823 971
e 824 893
e 824 953
e 827 959
e 830 953
e 831 885
e 831 842
e 832 903
e 835 900
e 835 953
e 839 937
e 842 939
e 842 978
e 842 878
e 845 892
e 853 875
e 853 980
e 854 872
e 858 906
e 863 939
e 866 886
e 869 906
e 870 913
e 872 900
e 878 967
e 886 960
e 887 900
e 895 943
e 897 909
e 899 991
e 913 959
e 913 998
e 915 947
e 922 993
e 929 951
e 934 978
e 934 960
e 950 956
e 952 961
e 953 985
e 962 980
e 965 998
e 968 981
e 968 969
e 969 977
e 989 997
